\ Model Asynchoronous-Version_copy
\ LP format - for model browsing. Use MPS format to capture full model detail.
Minimize
 
Subject To
 R3134: 0.3333333333333333 pL_eg_o[101,3,1]
   + 0.3333333333333333 pL_eg_o[101,3,2]
   + 0.3333333333333333 pL_eg_o[101,3,3]
   + 0.3333333333333333 pL_eg_o[101,3,4]
   + 0.3333333333333333 pL_eg_o[101,3,5]
   + 0.3333333333333333 pL_eg_o[101,3,6]
   + 0.3333333333333333 pL_eg_o[101,3,7]
   + 0.3333333333333333 pL_eg_o[101,3,8]
   + 0.3333333333333333 pL_eg_o[101,3,9]
   + 0.3333333333333333 pL_eg_o[101,3,10]
   + 0.3333333333333333 pL_eg_o[102,3,1]
   + 0.3333333333333333 pL_eg_o[102,3,2]
   + 0.3333333333333333 pL_eg_o[102,3,3]
   + 0.3333333333333333 pL_eg_o[102,3,4]
   + 0.3333333333333333 pL_eg_o[102,3,5]
   + 0.3333333333333333 pL_eg_o[102,3,6]
   + 0.3333333333333333 pL_eg_o[102,3,7]
   + 0.3333333333333333 pL_eg_o[102,3,8]
   + 0.3333333333333333 pL_eg_o[102,3,9]
   + 0.3333333333333333 pL_eg_o[102,3,10]
   + 0.3333333333333333 pL_eg_o[203,3,1]
   + 0.3333333333333333 pL_eg_o[203,3,2]
   + 0.3333333333333333 pL_eg_o[203,3,3]
   + 0.3333333333333333 pL_eg_o[203,3,4]
   + 0.3333333333333333 pL_eg_o[203,3,5]
   + 0.3333333333333333 pL_eg_o[203,3,6]
   + 0.3333333333333333 pL_eg_o[203,3,7]
   + 0.3333333333333333 pL_eg_o[203,3,8]
   + 0.3333333333333333 pL_eg_o[203,3,9]
   + 0.3333333333333333 pL_eg_o[203,3,10]
   + 0.3333333333333333 pL_eg_o[303,3,1]
   + 0.3333333333333333 pL_eg_o[303,3,2]
   + 0.3333333333333333 pL_eg_o[303,3,3]
   + 0.3333333333333333 pL_eg_o[303,3,4]
   + 0.3333333333333333 pL_eg_o[303,3,5]
   + 0.3333333333333333 pL_eg_o[303,3,6]
   + 0.3333333333333333 pL_eg_o[303,3,7]
   + 0.3333333333333333 pL_eg_o[303,3,8]
   + 0.3333333333333333 pL_eg_o[303,3,9]
   + 0.3333333333333333 pL_eg_o[303,3,10]
   + 0.3333333333333333 pR_eg_o[101,3,1]
   + 0.3333333333333333 pR_eg_o[101,3,2]
   + 0.3333333333333333 pR_eg_o[101,3,3]
   + 0.3333333333333333 pR_eg_o[101,3,4]
   + 0.3333333333333333 pR_eg_o[101,3,5]
   + 0.3333333333333333 pR_eg_o[101,3,6]
   + 0.3333333333333333 pR_eg_o[101,3,7]
   + 0.3333333333333333 pR_eg_o[101,3,8]
   + 0.3333333333333333 pR_eg_o[101,3,9]
   + 0.3333333333333333 pR_eg_o[101,3,10]
   + 0.3333333333333333 pR_eg_o[102,3,1]
   + 0.3333333333333333 pR_eg_o[102,3,2]
   + 0.3333333333333333 pR_eg_o[102,3,3]
   + 0.3333333333333333 pR_eg_o[102,3,4]
   + 0.3333333333333333 pR_eg_o[102,3,5]
   + 0.3333333333333333 pR_eg_o[102,3,6]
   + 0.3333333333333333 pR_eg_o[102,3,7]
   + 0.3333333333333333 pR_eg_o[102,3,8]
   + 0.3333333333333333 pR_eg_o[102,3,9]
   + 0.3333333333333333 pR_eg_o[102,3,10]
   + 0.3333333333333333 pR_eg_o[203,3,1]
   + 0.3333333333333333 pR_eg_o[203,3,2]
   + 0.3333333333333333 pR_eg_o[203,3,3]
   + 0.3333333333333333 pR_eg_o[203,3,4]
   + 0.3333333333333333 pR_eg_o[203,3,5]
   + 0.3333333333333333 pR_eg_o[203,3,6]
   + 0.3333333333333333 pR_eg_o[203,3,7]
   + 0.3333333333333333 pR_eg_o[203,3,8]
   + 0.3333333333333333 pR_eg_o[203,3,9]
   + 0.3333333333333333 pR_eg_o[203,3,10]
   + 0.3333333333333333 pR_eg_o[303,3,1]
   + 0.3333333333333333 pR_eg_o[303,3,2]
   + 0.3333333333333333 pR_eg_o[303,3,3]
   + 0.3333333333333333 pR_eg_o[303,3,4]
   + 0.3333333333333333 pR_eg_o[303,3,5]
   + 0.3333333333333333 pR_eg_o[303,3,6]
   + 0.3333333333333333 pR_eg_o[303,3,7]
   + 0.3333333333333333 pR_eg_o[303,3,8]
   + 0.3333333333333333 pR_eg_o[303,3,9]
   + 0.3333333333333333 pR_eg_o[303,3,10] - dLR_g[3]
   + 0.3333333333333333 p_eg_e'g[101,102,3]
   + 0.3333333333333333 p_eg_e'g[101,203,3]
   + 0.3333333333333333 p_eg_e'g[101,303,3]
   + 0.3333333333333333 p_eg_e'g[102,101,3]
   + 0.3333333333333333 p_eg_e'g[102,203,3]
   + 0.3333333333333333 p_eg_e'g[102,303,3]
   + 0.3333333333333333 p_eg_e'g[203,101,3]
   + 0.3333333333333333 p_eg_e'g[203,102,3]
   + 0.3333333333333333 p_eg_e'g[203,303,3]
   + 0.3333333333333333 p_eg_e'g[303,101,3]
   + 0.3333333333333333 p_eg_e'g[303,102,3]
   + 0.3333333333333333 p_eg_e'g[303,203,3] + 3.171729275534402 p_eg[101,3]
   + 3.579685528065548 p_eg[102,3] + 3.751426034487628 p_eg[203,3]
   + 2.885680560671519 p_eg[303,3] <= 0
 R3144: dLR_g[3] <= 5
 R3221: p_eg[101,3] >= 0.5
 R3230: p_eg[102,3] >= 0.5
 R3239: p_eg[203,3] >= 0.5
 R3248: p_eg[303,3] >= 0.5
Bounds
 dLR_g[3] free
 p_eg[101,3] free
 p_eg[102,3] free
 p_eg[203,3] free
 p_eg[303,3] free
End
